certificates/rado_a10_c156_N28.drat
16 -26 -27 -28 0
-15 23 -16 -28 0
-16 -27 -28 0
-27 -28 0
d -16 -27 -28 0
16 26 -28 0
26 -28 0
d 16 26 -28 0
-15 -16 -28 0
d -15 23 -16 -28 0
-16 -28 0
d -15 -16 -28 0
-28 0
15 16 0
16 0
-12 0
-20 0
14 0
-10 0
-18 0
4 0
15 0
-8 0
-11 0
-9 0
-19 0
-21 0
-22 0
17 0
-3 0
-2 0
-13 0
-1 0
-23 0
27 0
0
